
******************************************************************************
This program contains Ipopt, a library for large-scale nonlinear optimization.
 Ipopt is released as open source code under the Eclipse Public License (EPL).
         For more information visit http://projects.coin-or.org/Ipopt
******************************************************************************

This is Ipopt version 3.12.6, running with linear solver ma57.

Number of nonzeros in equality constraint Jacobian...:        0
Number of nonzeros in inequality constraint Jacobian.:     2296
Number of nonzeros in Lagrangian Hessian.............:      286

Total number of variables............................:      287
                     variables with only lower bounds:      278
                variables with lower and upper bounds:        0
                     variables with only upper bounds:        0
Total number of equality constraints.................:        0
Total number of inequality constraints...............:        8
        inequality constraints with only lower bounds:        0
   inequality constraints with lower and upper bounds:        0
        inequality constraints with only upper bounds:        8

iter    objective    inf_pr   inf_du lg(mu)  ||d||  lg(rg) alpha_du alpha_pr  ls
   0  3.8499823e-03 8.30e+02 2.00e+00  -1.0 0.00e+00    -  0.00e+00 0.00e+00   0
   1  9.4342816e-01 7.51e+02 2.57e+00  -1.0 3.97e+01    -  2.30e-01 9.57e-02h  1
   2  1.9275823e+01 4.58e+02 9.96e-01  -1.0 3.03e+01    -  3.53e-01 3.90e-01h  1
   3  2.5282203e+01 3.61e+02 4.27e+00  -1.0 7.06e+01    -  7.62e-03 2.11e-01h  1
   4 -4.4224494e+00 3.25e+02 6.81e+00  -1.0 3.05e+02    -  9.21e-03 9.93e-02f  1
   5 -7.9474877e+01 3.24e+02 7.79e+00  -1.0 2.27e+04    -  1.52e-03 3.33e-03f  1
   6 -1.8709444e+02 3.22e+02 2.17e+01  -1.0 1.82e+04    -  5.61e-02 5.96e-03f  1
   7 -4.0279771e+02 3.07e+02 2.39e+00  -1.0 4.75e+03    -  3.64e-03 4.53e-02f  1
   8 -4.6814043e+02 2.93e+02 5.24e+02  -1.0 1.40e+03    -  1.00e+00 4.61e-02f  1
   9 -4.6772047e+02 2.82e+02 5.04e+02  -1.0 1.96e+02    -  1.61e-01 3.82e-02h  1
iter    objective    inf_pr   inf_du lg(mu)  ||d||  lg(rg) alpha_du alpha_pr  ls
  10 -3.9852975e+02 0.00e+00 1.21e+00  -1.0 1.56e+02    -  7.34e-01 1.00e+00h  1
  11 -4.1832172e+02 0.00e+00 1.67e-01  -1.7 2.42e+01    -  8.65e-01 8.54e-01f  1
  12 -4.2643490e+02 0.00e+00 2.83e-08  -2.5 8.25e+00    -  1.00e+00 1.00e+00f  1
  13 -4.2723287e+02 0.00e+00 3.06e-06  -5.7 8.00e-01    -  9.99e-01 1.00e+00f  1
  14 -4.2723340e+02 0.00e+00 2.84e-13  -8.6 5.28e-04    -  1.00e+00 1.00e+00f  1

Number of Iterations....: 14

                                   (scaled)                 (unscaled)
Objective...............:  -4.2723339656925236e+02   -4.2723339656925236e+02
Dual infeasibility......:   2.8421709430404007e-13    2.8421709430404007e-13
Constraint violation....:   0.0000000000000000e+00    0.0000000000000000e+00
Complementarity.........:   2.5313960441779953e-09    2.5313960441779953e-09
Overall NLP error.......:   8.7281318616420432e-10    2.5313960441779953e-09


Number of objective function evaluations             = 15
Number of objective gradient evaluations             = 15
Number of equality constraint evaluations            = 0
Number of inequality constraint evaluations          = 15
Number of equality constraint Jacobian evaluations   = 0
Number of inequality constraint Jacobian evaluations = 15
Number of Lagrangian Hessian evaluations             = 14
Total CPU secs in IPOPT (w/o function evaluations)   =      0.010
Total CPU secs in NLP function evaluations           =      0.000

EXIT: Optimal Solution Found.

************************ CUTEst statistics ************************


 Package used            :  IPOPT
 Problem                 :  PRIMALC5  
 # variables             =             287
 # constraints           =               8
 # objective functions   =        0.3100000E+02
 # objective gradients   =        0.1600000E+02
 # objective Hessians    =        0.1500000E+02
 # Hessian-vector prdct  =        0.0000000E+00
 # constraints functions =        0.3200000E+02
 # constraints gradients =        0.1700000E+02
 # constraints Hessians  =        0.1500000E+02
 Exit code               =               0
 Final f                 =  -0.4272334E+03
 Set up time             =            0.01 seconds
 Solve time              =            0.04 seconds


******************************************************************

System Time =       0.0099999998 s.
